NAME: random-73-20124
TYPE: TSP
COMMENT: size=73 seed=20124
DIMENSION: 148
EDGE_WEIGHT_TYPE: EUC_2D
NODE_COORD_SECTION
+0 68 267
-0 68 267
+1 833 46
-1 394 205
+2 962 493
-2 661 16
+3 874 543
-3 863 999
+4 166 758
-4 555 673
+5 125 416
-5 672 40
+6 324 551
-6 326 599
+7 147 370
-7 635 738
+8 681 223
-8 76 57
+9 439 842
-9 675 60
+10 671 844
-10 58 144
+11 323 466
-11 255 743
+12 320 314
-12 796 361
+13 544 852
-13 669 310
+14 246 896
-14 208 926
+15 893 593
-15 393 236
+16 139 592
-16 463 817
+17 688 544
-17 780 334
+18 715 929
-18 240 74
+19 220 935
-19 72 103
+20 534 922
-20 603 586
+21 724 984
-21 715 190
+22 813 945
-22 588 144
+23 859 505
-23 183 656
+24 860 490
-24 219 583
+25 760 76
-25 991 236
+26 817 951
-26 839 973
+27 971 39
-27 941 118
+28 860 225
-28 362 537
+29 503 669
-29 878 360
+30 583 393
-30 836 953
+31 600 284
-31 534 651
+32 664 958
-32 505 326
+33 993 631
-33 800 910
+34 948 992
-34 252 372
+35 35 822
-35 935 361
+36 548 738
-36 469 100
+37 309 734
-37 842 525
+38 988 263
-38 968 691
+39 633 305
-39 897 457
+40 663 955
-40 214 250
+41 75 841
-41 726 530
+42 35 937
-42 944 22
+43 474 704
-43 446 416
+44 676 170
-44 532 614
+45 389 914
-45 215 233
+46 517 583
-46 132 463
+47 901 99
-47 355 925
+48 86 16
-48 630 822
+49 393 113
-49 69 236
+50 601 823
-50 777 822
+51 698 226
-51 579 348
+52 549 71
-52 137 748
+53 115 845
-53 117 717
+54 81 702
-54 242 52
+55 530 724
-55 399 7
+56 776 603
-56 284 969
+57 239 762
-57 153 670
+58 594 769
-58 506 713
+59 429 35
-59 541 377
+60 187 117
-60 44 993
+61 256 616
-61 242 515
+62 387 303
-62 539 113
+63 578 136
-63 43 594
+64 274 979
-64 734 432
+65 854 728
-65 522 652
+66 218 809
-66 655 81
+67 131 452
-67 141 104
+68 85 945
-68 873 423
+69 801 518
-69 53 934
+70 783 219
-70 276 286
+71 79 332
-71 90 296
+72 54 3
-72 73 418
+73 565 667
-73 528 153
PRECEDENCE_SECTION
+0 -0
+1 -1
+2 -2
+3 -3
+4 -4
+5 -5
+6 -6
+7 -7
+8 -8
+9 -9
+10 -10
+11 -11
+12 -12
+13 -13
+14 -14
+15 -15
+16 -16
+17 -17
+18 -18
+19 -19
+20 -20
+21 -21
+22 -22
+23 -23
+24 -24
+25 -25
+26 -26
+27 -27
+28 -28
+29 -29
+30 -30
+31 -31
+32 -32
+33 -33
+34 -34
+35 -35
+36 -36
+37 -37
+38 -38
+39 -39
+40 -40
+41 -41
+42 -42
+43 -43
+44 -44
+45 -45
+46 -46
+47 -47
+48 -48
+49 -49
+50 -50
+51 -51
+52 -52
+53 -53
+54 -54
+55 -55
+56 -56
+57 -57
+58 -58
+59 -59
+60 -60
+61 -61
+62 -62
+63 -63
+64 -64
+65 -65
+66 -66
+67 -67
+68 -68
+69 -69
+70 -70
+71 -71
+72 -72
+73 -73
EOF
